c "966429.clq"
p edge 140 544
e 1 5
e 1 6
e 1 10
e 1 11
e 1 20
e 1 26
e 1 38
e 1 39
e 1 53
e 1 66
e 1 68
e 1 72
e 1 80
e 1 85
e 1 89
e 1 99
e 1 106
e 1 118
e 1 119
e 1 120
e 2 5
e 2 7
e 2 8
e 2 33
e 2 83
e 3 5
e 3 6
e 3 7
e 3 17
e 3 87
e 4 5
e 4 6
e 4 7
e 4 9
e 4 10
e 4 12
e 4 13
e 4 14
e 4 17
e 4 21
e 4 24
e 4 27
e 4 37
e 4 47
e 4 48
e 4 73
e 4 75
e 4 87
e 4 112
e 5 6
e 5 8
e 5 9
e 5 11
e 5 13
e 5 14
e 5 15
e 5 17
e 5 20
e 5 22
e 5 25
e 5 26
e 5 28
e 5 32
e 5 34
e 5 35
e 5 40
e 5 43
e 5 44
e 5 49
e 5 52
e 5 61
e 5 71
e 5 75
e 5 76
e 5 80
e 5 85
e 5 90
e 5 98
e 5 100
e 5 102
e 5 103
e 5 107
e 5 113
e 5 115
e 5 121
e 6 7
e 6 8
e 6 9
e 6 10
e 6 14
e 6 18
e 6 19
e 6 21
e 6 23
e 6 24
e 6 25
e 6 29
e 6 31
e 6 42
e 6 44
e 6 46
e 6 50
e 6 51
e 6 53
e 6 61
e 6 63
e 6 65
e 6 67
e 6 78
e 6 81
e 6 87
e 6 95
e 6 96
e 6 102
e 6 113
e 6 123
e 6 140
e 7 8
e 7 11
e 7 12
e 7 15
e 7 16
e 7 17
e 7 40
e 7 41
e 7 43
e 7 49
e 7 52
e 7 67
e 7 71
e 7 78
e 7 85
e 7 86
e 7 90
e 7 96
e 7 101
e 7 117
e 7 118
e 7 136
e 8 9
e 8 12
e 8 22
e 8 23
e 8 36
e 8 39
e 8 46
e 8 50
e 8 58
e 8 70
e 8 93
e 8 110
e 8 111
e 8 115
e 9 10
e 9 14
e 9 15
e 9 16
e 9 18
e 9 19
e 9 27
e 9 30
e 9 42
e 9 45
e 9 51
e 9 56
e 9 60
e 9 69
e 9 74
e 9 77
e 9 79
e 9 93
e 9 96
e 9 97
e 9 99
e 9 104
e 9 108
e 9 118
e 9 124
e 9 126
e 10 11
e 10 12
e 10 15
e 10 20
e 10 21
e 10 23
e 10 25
e 10 29
e 10 38
e 10 48
e 10 54
e 10 73
e 10 84
e 10 89
e 10 92
e 10 126
e 11 13
e 11 20
e 11 55
e 11 62
e 11 74
e 12 13
e 12 27
e 12 30
e 12 33
e 12 41
e 12 116
e 12 138
e 13 18
e 13 19
e 13 24
e 13 25
e 13 28
e 13 31
e 13 32
e 13 33
e 13 35
e 13 45
e 13 50
e 13 54
e 13 59
e 13 67
e 13 81
e 13 90
e 13 108
e 13 110
e 13 116
e 14 16
e 14 19
e 14 21
e 14 24
e 14 30
e 14 34
e 14 35
e 14 36
e 14 41
e 14 55
e 14 57
e 14 59
e 14 72
e 14 74
e 14 79
e 14 88
e 14 91
e 14 98
e 14 119
e 14 124
e 14 130
e 15 16
e 15 29
e 15 38
e 15 54
e 15 67
e 15 74
e 15 77
e 15 82
e 15 91
e 15 92
e 15 105
e 15 121
e 15 127
e 15 131
e 16 18
e 16 22
e 16 27
e 16 32
e 16 44
e 16 59
e 16 66
e 16 80
e 16 93
e 17 33
e 17 55
e 17 139
e 18 22
e 18 28
e 18 34
e 18 35
e 18 56
e 18 57
e 18 70
e 18 75
e 18 82
e 18 94
e 18 103
e 18 106
e 18 117
e 18 121
e 18 122
e 18 123
e 19 29
e 19 31
e 19 44
e 20 28
e 20 39
e 20 66
e 20 69
e 20 70
e 20 86
e 20 95
e 21 45
e 21 48
e 21 91
e 21 139
e 22 23
e 22 26
e 22 36
e 22 39
e 22 40
e 22 43
e 22 46
e 22 53
e 22 59
e 22 62
e 22 63
e 22 69
e 22 76
e 22 84
e 22 111
e 22 113
e 22 135
e 22 136
e 22 137
e 23 60
e 23 100
e 23 133
e 24 26
e 24 30
e 24 43
e 24 51
e 24 60
e 24 92
e 24 96
e 24 119
e 24 126
e 24 129
e 24 140
e 25 52
e 25 132
e 26 34
e 26 45
e 26 47
e 26 57
e 26 61
e 26 65
e 26 80
e 27 38
e 28 37
e 28 54
e 28 58
e 28 64
e 28 68
e 28 69
e 28 72
e 28 79
e 28 90
e 28 106
e 28 109
e 28 115
e 28 135
e 29 31
e 29 37
e 29 42
e 29 47
e 29 98
e 30 37
e 30 47
e 30 77
e 30 79
e 30 83
e 30 101
e 30 104
e 30 117
e 30 136
e 31 32
e 31 36
e 31 51
e 31 57
e 31 64
e 32 41
e 32 42
e 32 63
e 32 70
e 32 83
e 32 86
e 32 100
e 32 110
e 33 101
e 33 136
e 34 75
e 34 88
e 35 55
e 35 66
e 35 72
e 35 132
e 36 48
e 36 62
e 36 98
e 36 112
e 36 115
e 37 49
e 37 50
e 37 61
e 37 78
e 37 89
e 37 94
e 37 106
e 38 40
e 39 46
e 39 49
e 39 56
e 39 64
e 39 107
e 39 122
e 40 95
e 40 104
e 40 131
e 41 52
e 41 82
e 41 89
e 41 102
e 41 103
e 41 137
e 42 71
e 42 84
e 42 88
e 43 76
e 43 87
e 43 135
e 44 73
e 45 71
e 46 124
e 47 53
e 47 58
e 47 73
e 47 131
e 48 60
e 48 88
e 48 100
e 48 132
e 50 56
e 50 62
e 50 125
e 50 127
e 51 122
e 53 63
e 53 85
e 53 99
e 55 68
e 55 97
e 56 128
e 57 58
e 57 86
e 57 95
e 57 127
e 57 129
e 57 138
e 58 64
e 58 68
e 59 65
e 59 94
e 59 109
e 59 126
e 59 133
e 60 105
e 60 121
e 61 82
e 62 76
e 62 105
e 62 113
e 63 65
e 63 133
e 64 78
e 64 107
e 65 77
e 65 93
e 65 108
e 65 111
e 65 134
e 67 114
e 68 81
e 68 137
e 69 81
e 70 99
e 70 101
e 70 107
e 70 120
e 70 123
e 70 128
e 71 84
e 71 109
e 71 116
e 74 134
e 74 140
e 75 130
e 76 102
e 76 134
e 76 138
e 77 91
e 77 124
e 78 83
e 80 109
e 80 117
e 81 116
e 81 125
e 82 112
e 84 94
e 85 97
e 86 122
e 86 125
e 87 120
e 88 129
e 89 108
e 89 123
e 91 92
e 92 130
e 93 114
e 93 134
e 93 139
e 94 97
e 94 130
e 95 140
e 96 104
e 96 135
e 97 103
e 97 120
e 99 114
e 100 110
e 100 111
e 101 118
e 101 128
e 102 105
e 102 112
e 102 119
e 102 138
e 104 127
e 104 133
e 112 114
e 114 131
e 115 128
e 118 139
e 121 125
e 121 132
e 124 129
e 124 137
